# distance=727
1 2
3 7
7 12
13 18
14 25
17 31
19 33
57 18
63 29
69 38
74 52
81 61
78 62
79 64
87 72
90 71
96 69
102 68
104 66
107 67
114 69
118 71
121 74
127 77
130 84
103 95
110 104
112 112
115 121
115 130
118 137
122 143
125 147
127 151
129 153
130 157
131 159
133 156
135 158
136 159
132 160
134 162
137 165
136 168
134 172
136 175
141 175
142 175
144 172
146 167
148 162
148 153
137 156
137 155
136 153
136 153
137 154
138 153
145 147
146 141
142 136
141 132
140 125
138 119
137 113
136 106
136 98
133 91
96 85
94 73
94 72
87 67
84 65
80 66
73 61
70 58
63 57
59 58
53 57
45 56
41 49
35 44
30 39
24 36
52 5
43 -11
35 -21
24 -35
16 -46
7 -60
-2 -74
-12 -88
-21 -101
-32 -115
-45 -127
-53 -137
-61 -147
-66 -152
-75 -156
-84 -159
